\* Problem: sample *\

Maximize
 obj: + x1 + x2 + x3 + x4 + x5 + x6 + x7 + x8 + x9 + x10 + x11 + x12
 + x13 + x14 + x15

Subject To
 r1: + x9 + x1 >= 0
 r2: + x15 + x1 >= 0
 r3: + x7 + x2 >= 0
 r4: + x13 + x2 >= 0
 r5: + x6 + x3 >= 0
 r6: + x14 + x3 >= 0
 r7: + x10 + x4 >= 0
 r8: + x12 + x4 >= 0
 r9: + x8 + x5 >= 0
 r10: + x11 + x5 >= 0
 r11: + x14 + x6 >= 0
 r12: + x13 + x7 >= 0
 r13: + x11 + x8 >= 0
 r14: + x15 + x9 >= 0
 r15: + x12 + x10 >= 0
 r16: + x3 + x2 + x1 <= 1
 r17: + x5 + x4 <= 1
 r18: + x7 + x6 <= 1
 r19: + x9 + x8 <= 1
 r20: + x10 <= 1
 r21: + x12 + x11 <= 1
 r22: + x14 + x13 <= 1
 r23: + x15 <= 1

Bounds
 x1 = 0
 x2 = 0
 x3 = 0
 x4 = 0
 x5 = 0
 x6 = 0
 x7 = 0
 x8 = 0
 x9 = 0
 x10 = 0
 x11 = 0
 x12 = 0
 x13 = 0
 x14 = 0
 x15 = 0

End
